! PBE0 Grid4 D3BJ def2-svp
! TightOpt
! CPCM(water)

%pal nprocs 1
end

* xyz 2 2
6       -0.828512844     -1.705762970      1.716789128
6        0.670705710     -2.020365969      1.654602238
7        1.478932072     -0.895028809      1.159842454
6        1.214630576      0.349365102      1.907824289
6       -0.268977340      0.730791238      1.989873516
6       -1.405417241     -1.368504950      0.336032365
7       -0.820479611     -0.165592258     -0.287034583
6       -0.873275352      1.002042560      0.607038588
6       -0.999454864     -0.465429819      2.580013869
6       -0.418181496      1.970561938      2.855373442
6       -1.569792424     -2.902605038      2.288166781
8       -1.633961006     -0.434491839      3.603397746
6       -1.497001209      0.119253758     -1.577342142
6        2.928631896     -1.215051464      1.160412831
6       -2.925040339      0.437191214     -1.251812629
6       -3.396652342      1.744718746     -1.147835890
6       -4.689429178      1.984282142     -0.680247738
6       -5.518798238      0.924954945     -0.302055815
6       -5.065426639     -0.383738148     -0.414263040
6       -3.765304344     -0.639418614     -0.885497190
6        3.310404915     -1.476597112      2.585700089
6        3.409522850     -0.361681072      3.449338270
6        3.606028310     -0.559227004      4.827741254
6        3.695140413     -1.848321776      5.338922001
6        3.611586750     -2.946315305      4.478296384
6        3.414350608     -2.764288079      3.108899924
29       1.098894067     -0.566653054     -0.805797834
1        1.026931307     -2.285274457      2.665658393
1        0.848022988     -2.889994999      1.003608288
1        1.783707647      1.170553505      1.446159894
1        1.604018430      0.217807866      2.932310740
1       -2.492071319     -1.202085017      0.437808368
1       -1.267998239     -2.224161130     -0.342532659
1       -1.929786530      1.300472286      0.726761206
1       -0.347021638      1.837893651      0.121212287
1       -0.018738338      1.785987520      3.861943101
1        0.123655269      2.817467301      2.410523464
1       -1.477866274      2.242661351      2.954332553
1       -1.437692534     -3.781302721      1.640708294
1       -1.192352291     -3.143819438      3.291229974
1       -2.643268721     -2.684811104      2.371793624
1       -1.429500661     -0.782413374     -2.201374270
1       -0.981253625      0.941240614     -2.096084083
1        3.121559225     -2.074342210      0.500730325
1        3.467691283     -0.343216228      0.764453713
1       -2.750455564      2.579263019     -1.428936723
1       -5.052014425      3.011765663     -0.603689691
1       -6.528485801      1.122709707      0.062579730
1       -5.734591961     -1.209548549     -0.168798330
1       -3.478310909     -1.667709459     -1.157426642
1        3.533823995      0.645824526      3.021044146
1        3.725052639      0.295347839      5.495246755
1        3.850002692     -2.001106951      6.408603708
1        3.694769426     -3.958583506      4.880125083
1        3.336786412     -3.627239961      2.443929605
*