! PBE0 Grid4 D3BJ def2-svp
! SP
! CPCM(water)
%pal nprocs 1
end
* xyz -1 1
Cl 0. 0. 0.
*