! PBE0 Grid4 D3BJ def2-svp
! SP Freq
! CPCM(Acetonitrile)
%pal nprocs 1
end
* xyz 0 2
6       -0.928564000      1.423849000      0.419789000
6        0.581435000      1.139062000      0.365531000
7        0.939057000     -0.187989000      0.878009000
6        0.177353000     -1.268170000      0.240559000
6       -1.344452000     -1.051865000      0.283876000
6       -1.487180000      1.402575000      1.852368000
7       -1.350820000      0.099507000      2.513884000
6       -1.899190000     -1.003203000      1.716926000
6       -1.617939000      0.304875000     -0.341653000
6       -2.028600000     -2.174265000     -0.477873000
6       -1.202648000      2.783109000     -0.201247000
8       -2.300135000      0.473478000     -1.323185000
6       -1.860146000      0.110091000      3.912337000
6        2.406747000     -0.434999000      0.868058000
6       -3.337750000      0.365034000      4.050009000
6       -4.248443000     -0.698885000      4.034429000
6       -5.618448000     -0.461271000      4.136297000
6       -6.093733000      0.844752000      4.261792000
6       -5.193654000      1.910399000      4.294393000
6       -3.823856000      1.670782000      4.191845000
6        3.037573000     -0.480279000     -0.498272000
6        3.137232000     -1.690414000     -1.196049000
6        3.701392000     -1.729422000     -2.470586000
6        4.178226000     -0.557933000     -3.059807000
6        4.097132000      0.650386000     -2.366455000
6        3.532722000      0.687371000     -1.092166000
29       0.597803000     -0.243630000      2.854425000
1        0.909952000      1.229085000     -0.684723000
1        1.120814000      1.889758000      0.963420000
1        0.431762000     -2.210458000      0.749985000
1        0.480141000     -1.355257000     -0.817383000
1       -2.554715000      1.680090000      1.806454000
1       -0.961899000      2.150877000      2.465738000
1       -2.996668000     -0.901247000      1.654415000
1       -1.667179000     -1.945498000      2.236750000
1       -1.677406000     -2.205478000     -1.518562000
1       -1.813530000     -3.143846000     -0.005606000
1       -3.116974000     -2.023921000     -0.492006000
1       -0.695298000      3.574646000      0.369262000
1       -0.842718000      2.813270000     -1.239001000
1       -2.281046000      2.993703000     -0.210423000
1       -1.283565000      0.883164000      4.442605000
1       -1.592070000     -0.865278000      4.344945000
1        2.856597000      0.363303000      1.477003000
1        2.561387000     -1.388021000      1.396592000
1       -3.880554000     -1.725164000      3.951123000
1       -6.317595000     -1.300924000      4.123384000
1       -7.167353000      1.031522000      4.343502000
1       -5.558961000      2.934191000      4.405899000
1       -3.121937000      2.508228000      4.231159000
1        2.778046000     -2.613496000     -0.732910000
1        3.774120000     -2.680666000     -3.003373000
1        4.622525000     -0.588130000     -4.057762000
1        4.480934000      1.568859000     -2.817125000
1        3.484675000      1.633903000     -0.546867000
17       1.580606000      1.572458000      3.809347000
17       0.832714000     -2.357023000      3.660520000
*